18.9,16.5
9.8,11.1
14.5,29.5
6.6,12.5
3.4,1.3
21.3,18.5
25.5,9.5
5.5,29.1
8.0,15.3
12.9,10.3
21.6,28.7
6.8,0.0
0.7,21.7
5.2,13.0
8.8,4.2
27.1,12.0
10.3,15.6
29.0,20.9
12.2,3.4
0.8,26.0
3.3,3.8
12.9,27.1
28.4,12.8
29.1,26.9
24.5,21.7
19.7,23.1
19.5,5.0
13.2,9.2
26.3,3.9
2.8,23.4
